(set-logic QF_SLIA)
(declare-fun var0 () String)
(assert (str.in_re var0 (re.++ ((_ re.loop 9 864) (re.++ (re.union (str.to_re "d") (re.union (str.to_re "j") (re.union (str.to_re "jh") (str.to_re "h")))) (re.++ (re.union (str.to_re "1") (re.union (str.to_re "*c") (re.union (str.to_re "}J") (str.to_re "H&F")))) (re.++ (re.union (str.to_re "^5l") (re.union (str.to_re "_Eo") (re.union (str.to_re ",") (str.to_re "{\u0022=")))) (re.union (str.to_re "mm_") (re.union (str.to_re "J#&") (re.union (str.to_re "`q4") (str.to_re "\\Y'")))))))) (re.++ ((_ re.loop 3 670) (re.++ (re.union (str.to_re "`oY") (re.union (str.to_re "O]") (re.union (str.to_re "|") (str.to_re "n")))) (re.++ (re.union (str.to_re "RRP") (re.union (str.to_re "CO") (re.union (str.to_re ";") (str.to_re "'")))) (re.++ (re.union (str.to_re "*A#") (re.union (str.to_re "b4") (re.union (str.to_re "nc") (str.to_re "C.2")))) (re.union (str.to_re "UT") (re.union (str.to_re "x0D") (re.union (str.to_re "(e?") (str.to_re "jA)")))))))) (re.++ ((_ re.loop 20 102) (re.++ (re.union (str.to_re "Q") (re.union (str.to_re "%em") (re.union (str.to_re "T*") (str.to_re "u")))) (re.++ (re.union (str.to_re "Vt") (re.union (str.to_re "-9") (re.union (str.to_re "3x") (str.to_re "Lg")))) (re.++ (re.union (str.to_re "xc~") (re.union (str.to_re "lA") (re.union (str.to_re "d") (str.to_re ">q")))) (re.union (str.to_re "e") (re.union (str.to_re "]") (re.union (str.to_re "Z?d") (str.to_re "%")))))))) ((_ re.loop 1 730) (re.++ (re.union (str.to_re "x*") (re.union (str.to_re ".") (re.union (str.to_re "^x") (str.to_re "c")))) (re.++ (re.union (str.to_re "LP4") (re.union (str.to_re "~") (re.union (str.to_re "2") (str.to_re "#V")))) (re.++ (re.union (str.to_re "sD") (re.union (str.to_re "*") (re.union (str.to_re "50(") (str.to_re "s`4")))) (re.union (str.to_re "n") (re.union (str.to_re "EY") (re.union (str.to_re "o") (str.to_re "4")))))))))))))
(assert (not (str.in_re var0 (re.++ ((_ re.loop 0 30) (re.++ (re.union (str.to_re "U") (re.union (str.to_re "2") (re.union (str.to_re "'.") (str.to_re "x;")))) (re.++ (re.union (str.to_re "U'q") (re.union (str.to_re "|E") (re.union (str.to_re "L`4") (str.to_re "x{U")))) (re.++ (re.union (str.to_re "/") (re.union (str.to_re "cV") (re.union (str.to_re "6(") (str.to_re "3")))) (re.union (str.to_re "&") (re.union (str.to_re "$-") (re.union (str.to_re "\\9y") (str.to_re "<")))))))) (re.++ ((_ re.loop 9 741) (re.++ (re.union (str.to_re ":") (re.union (str.to_re "H") (re.union (str.to_re "_9]") (str.to_re "p%")))) (re.++ (re.union (str.to_re ")I") (re.union (str.to_re "P") (re.union (str.to_re "y(d") (str.to_re "8")))) (re.++ (re.union (str.to_re "d") (re.union (str.to_re "N!i") (re.union (str.to_re "fYo") (str.to_re "dX>")))) (re.union (str.to_re "'>s") (re.union (str.to_re ")") (re.union (str.to_re "OXy") (str.to_re "(")))))))) (re.++ ((_ re.loop 17 193) (re.++ (re.union (str.to_re ">d") (re.union (str.to_re "xM:") (re.union (str.to_re "N") (str.to_re "#")))) (re.++ (re.union (str.to_re "m") (re.union (str.to_re "j") (re.union (str.to_re "p") (str.to_re "A")))) (re.++ (re.union (str.to_re "2~") (re.union (str.to_re "cSY") (re.union (str.to_re "z") (str.to_re "@")))) (re.union (str.to_re "(m0") (re.union (str.to_re "k") (re.union (str.to_re "`") (str.to_re "M")))))))) ((_ re.loop 10 602) (re.++ (re.union (str.to_re "K") (re.union (str.to_re "m-U") (re.union (str.to_re "2CA") (str.to_re "]BR")))) (re.++ (re.union (str.to_re "D}") (re.union (str.to_re ";") (re.union (str.to_re "\\") (str.to_re "(\u0022")))) (re.++ (re.union (str.to_re "u_*") (re.union (str.to_re "8L4") (re.union (str.to_re "D6H") (str.to_re "0)\\")))) (re.union (str.to_re "*,U") (re.union (str.to_re "1DN") (re.union (str.to_re "Mgt") (str.to_re "/`"))))))))))))))
(assert (not (str.in_re var0 (re.++ (re.* re.allchar) (re.++ (re.union (str.to_re "<") (re.union (str.to_re ">") (re.union (str.to_re "'") (re.union (str.to_re "\u0022") (str.to_re "&"))))) (re.* re.allchar))))))
(assert (<= 50 (str.len var0)))
(check-sat)
(get-model)
